20190716 78 0 0 0
20180718 55 0 0 0
20170724 39 0 0 0
20150706 24 0 0 0
20140523 81 0 0 0
20130527 210 0 0 0
20120608 215 0 0 0
20110613 156 0 0 0
20100715 149 0 0 0
20090716 154 0 0 0
20080710 62 0 0 0
